; benchmark generated from python API
(set-info :status unknown)
(declare-fun x_epoch () Int)
(declare-fun x_shift_period_355346_epoch () Int)
(declare-fun x_year () Int)
(declare-fun x_month () Int)
(declare-fun x_day () Int)
(declare-fun x_shift_period_355346_year () Int)
(declare-fun x_shift_period_355346_month () Int)
(declare-fun x_shift_period_355346_day () Int)
(declare-fun x_shift_period_362671_epoch () Int)
(declare-fun x_shift_period_362671_year () Int)
(declare-fun x_shift_period_362671_month () Int)
(declare-fun x_shift_period_362671_day () Int)
(assert
 (>= x_epoch (- 36584)))
(assert
 (<= x_epoch 36829))
(assert
 (>= x_epoch 7245))
(assert
 (<= x_epoch 7303))
(assert
 (>= x_shift_period_355346_epoch (- 36584)))
(assert
 (<= x_shift_period_355346_epoch 36829))
(assert
 (let (($x608 (<= x_year 2100)))
 (let (($x150 (>= x_year 1900)))
 (let (($x632 (= x_month 11)))
 (let (($x221 (= x_month 9)))
 (let (($x292 (= x_month 6)))
 (let (($x735 (= x_month 4)))
 (let ((?x100 (ite (or $x735 $x292 $x221 $x632) 30 31)))
 (let (($x345 (= (mod x_year 4) 0)))
 (let (($x461 (= (mod x_year 100) 0)))
 (let (($x701 (= (mod x_year 400) 0)))
 (let (($x231 (ite $x701 true (ite $x461 false $x345))))
 (let (($x107 (= x_month 2)))
 (let ((?x242 (ite $x107 (ite $x231 29 28) ?x100)))
 (let (($x496 (>= x_day 1)))
 (let (($x321 (<= x_month 12)))
 (let (($x471 (>= x_month 1)))
 (and $x471 $x321 $x496 (<= x_day ?x242) $x150 $x608))))))))))))))))))
(assert
 (let (($x29 (or (and (= (mod 2000 4) 0) (and (distinct (mod 2000 100) 0) true)) (= (mod 2000 400) 0))))
 (let ((?x36 (ite (= 3 2) (ite $x29 31 31) (ite (= 3 1) (ite $x29 0 0) 0))))
 (let ((?x40 (ite $x29 60 59)))
 (let ((?x41 (ite (= 3 3) ?x40 ?x36)))
 (let ((?x46 (ite (= 3 4) (ite $x29 91 90) ?x41)))
 (let ((?x52 (ite (= 3 5) (ite $x29 121 120) ?x46)))
 (let ((?x58 (ite (= 3 6) (ite $x29 152 151) ?x52)))
 (let ((?x64 (ite (= 3 7) (ite $x29 182 181) ?x58)))
 (let ((?x70 (ite (= 3 8) (ite $x29 213 212) ?x64)))
 (let ((?x76 (ite (= 3 9) (ite $x29 244 243) ?x70)))
 (let ((?x82 (ite (= 3 10) (ite $x29 274 273) ?x76)))
 (let ((?x88 (ite (= 3 11) (ite $x29 305 304) ?x82)))
 (let ((?x16 (- (+ (* 365 (- 2000 1)) (div (- 2000 1) 4)) (div (- 2000 1) 100))))
 (let ((?x95 (+ (+ ?x16 (div (- 2000 1) 400)) (ite (= 3 12) (ite $x29 335 334) ?x88))))
 (let ((?x97 (+ ?x95 (- 1 1))))
 (let (($x345 (= (mod x_year 4) 0)))
 (let (($x461 (= (mod x_year 100) 0)))
 (let (($x701 (= (mod x_year 400) 0)))
 (let (($x231 (ite $x701 true (ite $x461 false $x345))))
 (let (($x142 (= 2 x_month)))
 (let ((?x395 (ite $x142 (ite $x231 31 31) (ite (= 1 x_month) (ite $x231 0 0) 0))))
 (let (($x270 (= 3 x_month)))
 (let (($x585 (= 4 x_month)))
 (let ((?x499 (ite $x585 (ite $x231 91 90) (ite $x270 (ite $x231 60 59) ?x395))))
 (let (($x510 (= 5 x_month)))
 (let (($x460 (= 6 x_month)))
 (let ((?x2018 (ite $x460 (ite $x231 152 151) (ite $x510 (ite $x231 121 120) ?x499))))
 (let (($x112 (= 7 x_month)))
 (let (($x601 (= 8 x_month)))
 (let ((?x606 (ite $x601 (ite $x231 213 212) (ite $x112 (ite $x231 182 181) ?x2018))))
 (let (($x659 (= 9 x_month)))
 (let (($x2109 (= 10 x_month)))
 (let ((?x3347 (ite $x2109 (ite $x231 274 273) (ite $x659 (ite $x231 244 243) ?x606))))
 (let (($x1089 (= 11 x_month)))
 (let (($x645 (= 12 x_month)))
 (let ((?x728 (ite $x645 (ite $x231 335 334) (ite $x1089 (ite $x231 305 304) ?x3347))))
 (let ((?x579 (- (+ (* 365 (- x_year 1)) (div (- x_year 1) 4)) (div (- x_year 1) 100))))
 (let ((?x2874 (+ (+ (+ ?x579 (div (- x_year 1) 400)) ?x728) (- x_day 1))))
 (= x_epoch (- ?x2874 ?x97)))))))))))))))))))))))))))))))))))))))))
(assert
 (let (($x4306 (<= x_shift_period_355346_year 2100)))
 (let (($x4300 (>= x_shift_period_355346_year 1900)))
 (let (($x717 (= x_shift_period_355346_month 11)))
 (let (($x4304 (= x_shift_period_355346_month 9)))
 (let (($x1202 (= x_shift_period_355346_month 6)))
 (let (($x906 (= x_shift_period_355346_month 4)))
 (let ((?x4451 (ite (or $x906 $x1202 $x4304 $x717) 30 31)))
 (let (($x4452 (= (mod x_shift_period_355346_year 4) 0)))
 (let (($x4323 (= (mod x_shift_period_355346_year 100) 0)))
 (let (($x1678 (= (mod x_shift_period_355346_year 400) 0)))
 (let (($x4312 (ite $x1678 true (ite $x4323 false $x4452))))
 (let (($x871 (= x_shift_period_355346_month 2)))
 (let (($x1575 (>= x_shift_period_355346_day 1)))
 (let (($x4307 (<= x_shift_period_355346_month 12)))
 (let (($x4458 (>= x_shift_period_355346_month 1)))
 (and $x4458 $x4307 $x1575 (<= x_shift_period_355346_day (ite $x871 (ite $x4312 29 28) ?x4451)) $x4300 $x4306)))))))))))))))))
(assert
 (let (($x29 (or (and (= (mod 2000 4) 0) (and (distinct (mod 2000 100) 0) true)) (= (mod 2000 400) 0))))
 (let ((?x36 (ite (= 3 2) (ite $x29 31 31) (ite (= 3 1) (ite $x29 0 0) 0))))
 (let ((?x40 (ite $x29 60 59)))
 (let ((?x41 (ite (= 3 3) ?x40 ?x36)))
 (let ((?x46 (ite (= 3 4) (ite $x29 91 90) ?x41)))
 (let ((?x52 (ite (= 3 5) (ite $x29 121 120) ?x46)))
 (let ((?x58 (ite (= 3 6) (ite $x29 152 151) ?x52)))
 (let ((?x64 (ite (= 3 7) (ite $x29 182 181) ?x58)))
 (let ((?x70 (ite (= 3 8) (ite $x29 213 212) ?x64)))
 (let ((?x76 (ite (= 3 9) (ite $x29 244 243) ?x70)))
 (let ((?x82 (ite (= 3 10) (ite $x29 274 273) ?x76)))
 (let ((?x88 (ite (= 3 11) (ite $x29 305 304) ?x82)))
 (let ((?x16 (- (+ (* 365 (- 2000 1)) (div (- 2000 1) 4)) (div (- 2000 1) 100))))
 (let ((?x95 (+ (+ ?x16 (div (- 2000 1) 400)) (ite (= 3 12) (ite $x29 335 334) ?x88))))
 (let ((?x97 (+ ?x95 (- 1 1))))
 (let (($x4452 (= (mod x_shift_period_355346_year 4) 0)))
 (let (($x4323 (= (mod x_shift_period_355346_year 100) 0)))
 (let (($x1678 (= (mod x_shift_period_355346_year 400) 0)))
 (let (($x4312 (ite $x1678 true (ite $x4323 false $x4452))))
 (let ((?x4263 (ite (= 1 x_shift_period_355346_month) (ite $x4312 0 0) 0)))
 (let ((?x4280 (ite (= 3 x_shift_period_355346_month) (ite $x4312 60 59) (ite (= 2 x_shift_period_355346_month) (ite $x4312 31 31) ?x4263))))
 (let ((?x3322 (ite (= 5 x_shift_period_355346_month) (ite $x4312 121 120) (ite (= 4 x_shift_period_355346_month) (ite $x4312 91 90) ?x4280))))
 (let ((?x2213 (ite (= 7 x_shift_period_355346_month) (ite $x4312 182 181) (ite (= 6 x_shift_period_355346_month) (ite $x4312 152 151) ?x3322))))
 (let ((?x1456 (ite (= 9 x_shift_period_355346_month) (ite $x4312 244 243) (ite (= 8 x_shift_period_355346_month) (ite $x4312 213 212) ?x2213))))
 (let ((?x3262 (ite (= 11 x_shift_period_355346_month) (ite $x4312 305 304) (ite (= 10 x_shift_period_355346_month) (ite $x4312 274 273) ?x1456))))
 (let ((?x1571 (+ (* 365 (- x_shift_period_355346_year 1)) (div (- x_shift_period_355346_year 1) 4))))
 (let ((?x2229 (+ (- ?x1571 (div (- x_shift_period_355346_year 1) 100)) (div (- x_shift_period_355346_year 1) 400))))
 (let ((?x4260 (+ ?x2229 (ite (= 12 x_shift_period_355346_month) (ite $x4312 335 334) ?x3262))))
 (= x_shift_period_355346_epoch (- (+ ?x4260 (- x_shift_period_355346_day 1)) ?x97)))))))))))))))))))))))))))))))
(assert
 (let ((?x385 (* 12 x_year)))
 (let ((?x2832 (+ ?x385 (- x_month 1))))
 (let ((?x286 (+ ?x2832 12)))
 (let ((?x2647 (div ?x286 12)))
 (= x_shift_period_355346_year ?x2647))))))
(assert
 (let ((?x2201 (+ (mod (+ (+ (* 12 x_year) (- x_month 1)) 12) 12) 1)))
 (= x_shift_period_355346_month ?x2201)))
(assert
 (let ((?x2201 (+ (mod (+ (+ (* 12 x_year) (- x_month 1)) 12) 12) 1)))
 (let ((?x1164 (ite (or (= ?x2201 4) (= ?x2201 6) (= ?x2201 9) (= ?x2201 11)) 30 31)))
 (let ((?x385 (* 12 x_year)))
 (let ((?x2832 (+ ?x385 (- x_month 1))))
 (let ((?x286 (+ ?x2832 12)))
 (let ((?x2647 (div ?x286 12)))
 (let (($x136 (ite (= (mod ?x2647 400) 0) true (ite (= (mod ?x2647 100) 0) false (= (mod ?x2647 4) 0)))))
 (let ((?x1669 (ite (= ?x2201 2) (ite $x136 29 28) ?x1164)))
 (let ((?x2055 (ite (<= x_day ?x1669) x_day ?x1669)))
 (let (($x632 (= x_month 11)))
 (let (($x221 (= x_month 9)))
 (let (($x292 (= x_month 6)))
 (let (($x735 (= x_month 4)))
 (let ((?x100 (ite (or $x735 $x292 $x221 $x632) 30 31)))
 (let (($x345 (= (mod x_year 4) 0)))
 (let (($x461 (= (mod x_year 100) 0)))
 (let (($x701 (= (mod x_year 400) 0)))
 (let (($x231 (ite $x701 true (ite $x461 false $x345))))
 (let (($x107 (= x_month 2)))
 (let ((?x242 (ite $x107 (ite $x231 29 28) ?x100)))
 (let (($x546 (= x_day ?x242)))
 (let ((?x530 (ite false (ite $x546 ?x1669 ?x2055) ?x2055)))
 (= x_shift_period_355346_day ?x530))))))))))))))))))))))))
(assert
 (>= x_shift_period_362671_epoch (- 36584)))
(assert
 (<= x_shift_period_362671_epoch 36829))
(assert
 (let (($x4145 (<= x_shift_period_362671_year 2100)))
 (let (($x1842 (>= x_shift_period_362671_year 1900)))
 (let (($x4160 (= x_shift_period_362671_month 11)))
 (let (($x4162 (= x_shift_period_362671_month 9)))
 (let (($x4159 (= x_shift_period_362671_month 6)))
 (let (($x4434 (= x_shift_period_362671_month 4)))
 (let ((?x4164 (ite (or $x4434 $x4159 $x4162 $x4160) 30 31)))
 (let (($x4439 (= (mod x_shift_period_362671_year 4) 0)))
 (let (($x4433 (= (mod x_shift_period_362671_year 100) 0)))
 (let (($x4166 (= (mod x_shift_period_362671_year 400) 0)))
 (let (($x4437 (ite $x4166 true (ite $x4433 false $x4439))))
 (let (($x2942 (= x_shift_period_362671_month 2)))
 (let (($x171 (>= x_shift_period_362671_day 1)))
 (let (($x2834 (<= x_shift_period_362671_month 12)))
 (let (($x4187 (>= x_shift_period_362671_month 1)))
 (and $x4187 $x2834 $x171 (<= x_shift_period_362671_day (ite $x2942 (ite $x4437 29 28) ?x4164)) $x1842 $x4145)))))))))))))))))
(assert
 (let (($x29 (or (and (= (mod 2000 4) 0) (and (distinct (mod 2000 100) 0) true)) (= (mod 2000 400) 0))))
 (let ((?x36 (ite (= 3 2) (ite $x29 31 31) (ite (= 3 1) (ite $x29 0 0) 0))))
 (let ((?x40 (ite $x29 60 59)))
 (let ((?x41 (ite (= 3 3) ?x40 ?x36)))
 (let ((?x46 (ite (= 3 4) (ite $x29 91 90) ?x41)))
 (let ((?x52 (ite (= 3 5) (ite $x29 121 120) ?x46)))
 (let ((?x58 (ite (= 3 6) (ite $x29 152 151) ?x52)))
 (let ((?x64 (ite (= 3 7) (ite $x29 182 181) ?x58)))
 (let ((?x70 (ite (= 3 8) (ite $x29 213 212) ?x64)))
 (let ((?x76 (ite (= 3 9) (ite $x29 244 243) ?x70)))
 (let ((?x82 (ite (= 3 10) (ite $x29 274 273) ?x76)))
 (let ((?x88 (ite (= 3 11) (ite $x29 305 304) ?x82)))
 (let ((?x16 (- (+ (* 365 (- 2000 1)) (div (- 2000 1) 4)) (div (- 2000 1) 100))))
 (let ((?x95 (+ (+ ?x16 (div (- 2000 1) 400)) (ite (= 3 12) (ite $x29 335 334) ?x88))))
 (let ((?x97 (+ ?x95 (- 1 1))))
 (let (($x4439 (= (mod x_shift_period_362671_year 4) 0)))
 (let (($x4433 (= (mod x_shift_period_362671_year 100) 0)))
 (let (($x4166 (= (mod x_shift_period_362671_year 400) 0)))
 (let (($x4437 (ite $x4166 true (ite $x4433 false $x4439))))
 (let ((?x4127 (ite (= 1 x_shift_period_362671_month) (ite $x4437 0 0) 0)))
 (let ((?x114 (ite (= 3 x_shift_period_362671_month) (ite $x4437 60 59) (ite (= 2 x_shift_period_362671_month) (ite $x4437 31 31) ?x4127))))
 (let ((?x4104 (ite (= 5 x_shift_period_362671_month) (ite $x4437 121 120) (ite (= 4 x_shift_period_362671_month) (ite $x4437 91 90) ?x114))))
 (let ((?x4111 (ite (= 7 x_shift_period_362671_month) (ite $x4437 182 181) (ite (= 6 x_shift_period_362671_month) (ite $x4437 152 151) ?x4104))))
 (let ((?x4430 (ite (= 9 x_shift_period_362671_month) (ite $x4437 244 243) (ite (= 8 x_shift_period_362671_month) (ite $x4437 213 212) ?x4111))))
 (let ((?x4091 (ite (= 11 x_shift_period_362671_month) (ite $x4437 305 304) (ite (= 10 x_shift_period_362671_month) (ite $x4437 274 273) ?x4430))))
 (let ((?x4438 (+ (* 365 (- x_shift_period_362671_year 1)) (div (- x_shift_period_362671_year 1) 4))))
 (let ((?x4124 (+ (- ?x4438 (div (- x_shift_period_362671_year 1) 100)) (div (- x_shift_period_362671_year 1) 400))))
 (let ((?x4081 (+ ?x4124 (ite (= 12 x_shift_period_362671_month) (ite $x4437 335 334) ?x4091))))
 (= x_shift_period_362671_epoch (- (+ ?x4081 (- x_shift_period_362671_day 1)) ?x97)))))))))))))))))))))))))))))))
(assert
 (= x_shift_period_362671_epoch (+ x_epoch 365)))
(assert
 (not (= x_shift_period_355346_epoch x_shift_period_362671_epoch)))
(check-sat)
